Nodes = {"Frankfurt", "Koeln", "Hamburg", "Hannover", "Karlsruhe", "Stuttgart", "Muenchen", "Nuernberg", "Berlin", "Leipzig"};
Arcs = {<"Frankfurt","Koeln",10,4,1>, <"Frankfurt","Hamburg",10,13,1>, <"Frankfurt","Hannover",10,6,1>, <"Frankfurt","Karlsruhe",10,1,1>, <"Frankfurt","Stuttgart",10,3,1>, <"Frankfurt","Muenchen",10,13,1>, <"Frankfurt","Nuernberg",10,8,1>, <"Frankfurt","Berlin",10,28,1>, <"Frankfurt","Leipzig",10,16,1>, <"Koeln","Frankfurt",10,4,1>, <"Koeln","Hamburg",10,20,1>, <"Koeln","Hannover",10,11,1>, <"Koeln","Karlsruhe",10,5,1>, <"Koeln","Stuttgart",10,11,1>, <"Koeln","Muenchen",10,29,1>, <"Koeln","Nuernberg",10,22,1>, <"Koeln","Berlin",10,47,1>, <"Koeln","Leipzig",10,32,1>, <"Hamburg","Frankfurt",10,13,1>, <"Hamburg","Koeln",10,20,1>, <"Hamburg","Hannover",10,2,1>, <"Hamburg","Karlsruhe",10,22,1>, <"Hamburg","Stuttgart",10,25,1>, <"Hamburg","Muenchen",10,29,1>, <"Hamburg","Nuernberg",10,18,1>, <"Hamburg","Berlin",10,11,1>, <"Hamburg","Leipzig",10,9,1>, <"Hannover","Frankfurt",10,6,1>, <"Hannover","Koeln",10,11,1>, <"Hannover","Hamburg",10,2,1>, <"Hannover","Karlsruhe",10,12,1>, <"Hannover","Stuttgart",10,14,1>, <"Hannover","Muenchen",10,21,1>, <"Hannover","Nuernberg",10,11,1>, <"Hannover","Berlin",10,14,1>, <"Hannover","Leipzig",10,9,1>, <"Karlsruhe","Frankfurt",10,1,1>, <"Karlsruhe","Koeln",10,5,1>, <"Karlsruhe","Hamburg",10,22,1>, <"Karlsruhe","Hannover",10,12,1>, <"Karlsruhe","Stuttgart",10,1,1>, <"Karlsruhe","Muenchen",10,10,1>, <"Karlsruhe","Nuernberg",10,8,1>, <"Karlsruhe","Berlin",10,35,1>, <"Karlsruhe","Leipzig",10,21,1>, <"Stuttgart","Frankfurt",10,3,1>, <"Stuttgart","Koeln",10,11,1>, <"Stuttgart","Hamburg",10,25,1>, <"Stuttgart","Hannover",10,14,1>, <"Stuttgart","Karlsruhe",10,1,1>, <"Stuttgart","Muenchen",10,5,1>, <"Stuttgart","Nuernberg",10,4,1>, <"Stuttgart","Berlin",10,31,1>, <"Stuttgart","Leipzig",10,17,1>, <"Muenchen","Frankfurt",10,13,1>, <"Muenchen","Koeln",10,29,1>, <"Muenchen","Hamburg",10,29,1>, <"Muenchen","Hannover",10,21,1>, <"Muenchen","Karlsruhe",10,10,1>, <"Muenchen","Stuttgart",10,5,1>, <"Muenchen","Nuernberg",10,2,1>, <"Muenchen","Berlin",10,21,1>, <"Muenchen","Leipzig",10,11,1>, <"Nuernberg","Frankfurt",10,8,1>, <"Nuernberg","Koeln",10,22,1>, <"Nuernberg","Hamburg",10,18,1>, <"Nuernberg","Hannover",10,11,1>, <"Nuernberg","Karlsruhe",10,8,1>, <"Nuernberg","Stuttgart",10,4,1>, <"Nuernberg","Muenchen",10,2,1>, <"Nuernberg","Berlin",10,14,1>, <"Nuernberg","Leipzig",10,5,1>, <"Berlin","Frankfurt",10,28,1>, <"Berlin","Koeln",10,47,1>, <"Berlin","Hamburg",10,11,1>, <"Berlin","Hannover",10,14,1>, <"Berlin","Karlsruhe",10,35,1>, <"Berlin","Stuttgart",10,31,1>, <"Berlin","Muenchen",10,21,1>, <"Berlin","Nuernberg",10,14,1>, <"Berlin","Leipzig",10,2,1>, <"Leipzig","Frankfurt",10,16,1>, <"Leipzig","Koeln",10,32,1>, <"Leipzig","Hamburg",10,9,1>, <"Leipzig","Hannover",10,9,1>, <"Leipzig","Karlsruhe",10,21,1>, <"Leipzig","Stuttgart",10,17,1>, <"Leipzig","Muenchen",10,11,1>, <"Leipzig","Nuernberg",10,5,1>, <"Leipzig","Berlin",10,2,1>};
Demands = {<"Frankfurt","Koeln",10>, <"Frankfurt","Hamburg",20>, <"Frankfurt","Hannover",30>, <"Frankfurt","Karlsruhe",40>, <"Frankfurt","Stuttgart",50>, <"Frankfurt","Muenchen",60>, <"Frankfurt","Nuernberg",70>, <"Frankfurt","Berlin",80>, <"Frankfurt","Leipzig",90>, <"Koeln","Frankfurt",10>, <"Koeln","Hamburg",10>, <"Koeln","Hannover",20>, <"Koeln","Karlsruhe",30>, <"Koeln","Stuttgart",40>, <"Koeln","Muenchen",50>, <"Koeln","Nuernberg",60>, <"Koeln","Berlin",70>, <"Koeln","Leipzig",80>, <"Hamburg","Frankfurt",20>, <"Hamburg","Koeln",10>, <"Hamburg","Hannover",10>, <"Hamburg","Karlsruhe",20>, <"Hamburg","Stuttgart",30>, <"Hamburg","Muenchen",40>, <"Hamburg","Nuernberg",50>, <"Hamburg","Berlin",60>, <"Hamburg","Leipzig",70>, <"Hannover","Frankfurt",30>, <"Hannover","Koeln",20>, <"Hannover","Hamburg",10>, <"Hannover","Karlsruhe",10>, <"Hannover","Stuttgart",20>, <"Hannover","Muenchen",30>, <"Hannover","Nuernberg",40>, <"Hannover","Berlin",50>, <"Hannover","Leipzig",60>, <"Karlsruhe","Frankfurt",40>, <"Karlsruhe","Koeln",30>, <"Karlsruhe","Hamburg",20>, <"Karlsruhe","Hannover",10>, <"Karlsruhe","Stuttgart",10>, <"Karlsruhe","Muenchen",20>, <"Karlsruhe","Nuernberg",30>, <"Karlsruhe","Berlin",40>, <"Karlsruhe","Leipzig",50>, <"Stuttgart","Frankfurt",50>, <"Stuttgart","Koeln",40>, <"Stuttgart","Hamburg",30>, <"Stuttgart","Hannover",20>, <"Stuttgart","Karlsruhe",10>, <"Stuttgart","Muenchen",10>, <"Stuttgart","Nuernberg",20>, <"Stuttgart","Berlin",30>, <"Stuttgart","Leipzig",40>, <"Muenchen","Frankfurt",60>, <"Muenchen","Koeln",50>, <"Muenchen","Hamburg",40>, <"Muenchen","Hannover",30>, <"Muenchen","Karlsruhe",20>, <"Muenchen","Stuttgart",10>, <"Muenchen","Nuernberg",10>, <"Muenchen","Berlin",20>, <"Muenchen","Leipzig",30>, <"Nuernberg","Frankfurt",70>, <"Nuernberg","Koeln",60>, <"Nuernberg","Hamburg",50>, <"Nuernberg","Hannover",40>, <"Nuernberg","Karlsruhe",30>, <"Nuernberg","Stuttgart",20>, <"Nuernberg","Muenchen",10>, <"Nuernberg","Berlin",10>, <"Nuernberg","Leipzig",20>, <"Berlin","Frankfurt",80>, <"Berlin","Koeln",70>, <"Berlin","Hamburg",60>, <"Berlin","Hannover",50>, <"Berlin","Karlsruhe",40>, <"Berlin","Stuttgart",30>, <"Berlin","Muenchen",20>, <"Berlin","Nuernberg",10>, <"Berlin","Leipzig",10>, <"Leipzig","Frankfurt",90>, <"Leipzig","Koeln",80>, <"Leipzig","Hamburg",70>, <"Leipzig","Hannover",60>, <"Leipzig","Karlsruhe",50>, <"Leipzig","Stuttgart",40>, <"Leipzig","Muenchen",30>, <"Leipzig","Nuernberg",20>, <"Leipzig","Berlin",10>};
